p cnf 1000 56
3 -4 5 0
-3 4 5 0
3 4 -5 0
-3 -4 -5 0
4 6 -7 8 -9 10 11 12 13 14 15 16 17 18 19 20 21 22 0
4 -5 23 0
6 -24 25 -26 0
8 -27 28 29 -30 31 32 -33 -34 0
10 35 -36 -37 38 0
11 39 40 -41 -42 43 0
12 39 40 -44 45 46 -47 -48 -49 -50 0
13 39 40 43 -48 -51 52 0
14 39 40 -41 -42 -44 45 46 -47 0
15 -27 -28 29 -30 31 32 -33 -34 53 -54 55 -56 57 0
16 -58 -59 -60 0
17 -54 55 57 61 62 63 0
19 27 28 29 -30 31 32 33 -34 -54 55 -64 0
20 -24 25 -54 55 -56 57 0
22 -35 -36 -37 38 65 0
-9 10 11 12 13 14 15 16 17 18 19 20 21 22 23 -66 -67 68 -69 70 71 72 73 -74 75 0
25 57 -76 0
-26 77 78 79 80 81 82 83 84 0
-41 85 86 0
43 -44 45 0
-28 29 -30 -31 32 45 53 -87 0
-51 85 88 89 0
52 -90 -91 0
55 -60 -90 0
29 30 -31 57 0
-24 25 61 0
27 28 29 -30 31 32 33 -34 62 0
-27 -28 29 -30 31 32 -33 -34 53 63 0
-66 67 68 -69 70 72 0
75 -76 92 93 0
29 30 31 -76 0
28 29 30 31 32 34 53 77 94 -95 0
-28 29 30 31 32 -34 53 78 0
28 29 30 31 32 -34 53 79 94 -95 0
28 29 30 31 32 -34 53 80 94 95 0
28 29 30 31 32 34 53 81 -94 -95 0
28 29 30 31 32 -34 53 82 -94 95 0
-28 29 30 31 32 34 53 83 0
28 29 30 31 32 34 53 84 -94 95 0
28 29 -30 -31 32 85 0
86 -91 -96 0
29 -30 -31 -32 88 0
-28 29 -30 -31 32 53 89 0
88 89 -91 0
39 40 92 97 -98 0
-28 29 -30 -31 32 93 0
-98 99 100 0
-27 -28 29 -30 31 32 -33 -34 99 0
-27 -28 29 -30 31 32 33 -34 100 0
-2 0
3 0
1 0

